# 32812
param k := 6;
param n := 50;
param s := 1;
set E :=  (0,40) (0,42) (1,36) (2,3) (2,5) (2,21) (3,7) (3,9) (3,13) (4,25) (4,31) (4,32) (6,38) (7,17) (7,25) (8,9) (10,22) (11,41) (12,16) (12,19) (12,37) (13,28) (14,22) (15,16) (15,27) (15,36) (18,22) (18,24) (18,29) (19,24) (20,25) (20,26) (20,43) (21,40) (23,27) (24,33) (27,40) (27,49) (29,41) (29,48) (30,34) (30,38) (30,48) (32,35) (32,46) (33,45) (39,44) (39,45) (46,47);